50
14472

374 515
466 465
461 366
788 665
32 719
294 692
64 191
899 294
379 573
628 222
653 455
546 705
567 57
248 267
799 267
37 32
708 180
458 931
860 18
676 126
600 143
859 662
668 692
483 636
385 133
151 977
156 72
46 429
379 35
173 436
193 648
356 119
2 742
429 697
902 812
110 449
299 72
98 633
985 660
669 628
727 232
363 338
845 677
70 62
96 726
163 116
646 977
452 665
895 904
606 871
